p tw 57 6841 2 
1 3 
1 4 
1 5 
1 6 
1 7 
1 8 
1 9 
1 10 
1 11 
1 12 
1 13 
1 14 
1 15 
1 16 
1 17 
1 18 
1 25 
1 32 
1 33 
1 34 
1 35 
1 36 
1 37 
2 3 
2 4 
2 5 
2 6 
2 7 
2 8 
2 9 
2 10 
2 16 
2 18 
2 19 
2 20 
2 21 
2 22 
2 23 
2 24 
2 29 
2 34 
2 40 
2 45 
2 49 
2 52 
2 56 
3 4 
3 5 
3 6 
3 7 
3 8 
3 9 
3 10 
3 12 
3 18 
3 25 
3 26 
3 27 
3 28 
3 29 
3 30 
3 31 
3 38 
3 42 
3 47 
3 48 
3 49 
3 50 
4 5 
4 6 
4 7 
4 8 
4 9 
4 11 
4 17 
4 19 
4 21 
4 26 
4 31 
4 32 
4 36 
4 38 
4 39 
4 40 
4 41 
4 46 
4 49 
4 54 
4 55 
5 6 
5 7 
5 8 
5 9 
5 11 
5 13 
5 20 
5 21 
5 25 
5 27 
5 33 
5 39 
5 42 
5 43 
5 44 
5 45 
5 46 
5 47 
5 51 
5 52 
6 7 
6 8 
6 9 
6 14 
6 15 
6 20 
6 22 
6 27 
6 31 
6 34 
6 37 
6 38 
6 41 
6 43 
6 50 
6 51 
6 53 
6 54 
6 56 
7 8 
7 9 
7 13 
7 17 
7 22 
7 23 
7 26 
7 30 
7 35 
7 37 
7 39 
7 42 
7 45 
7 48 
7 53 
7 55 
7 56 
7 57 
8 9 
8 12 
8 15 
8 23 
8 24 
8 28 
8 29 
8 32 
8 33 
8 40 
8 43 
8 44 
8 48 
8 51 
8 54 
8 55 
8 57 
9 14 
9 16 
9 19 
9 24 
9 28 
9 30 
9 35 
9 36 
9 41 
9 44 
9 46 
9 47 
9 50 
9 52 
9 53 
9 57 
10 11 
10 12 
10 13 
10 14 
10 15 
10 16 
10 17 
10 18 
10 19 
10 20 
10 21 
10 22 
10 23 
10 24 
10 25 
10 26 
10 27 
10 28 
10 29 
10 30 
10 31 
11 12 
11 13 
11 14 
11 15 
11 16 
11 17 
11 19 
11 20 
11 25 
11 26 
11 32 
11 38 
11 39 
11 40 
11 41 
11 42 
11 43 
11 44 
11 45 
11 46 
12 13 
12 14 
12 15 
12 16 
12 17 
12 18 
12 24 
12 29 
12 32 
12 38 
12 42 
12 43 
12 47 
12 48 
12 49 
12 50 
12 51 
12 55 
12 57 
13 14 
13 15 
13 16 
13 17 
13 21 
13 23 
13 26 
13 27 
13 33 
13 35 
13 39 
13 42 
13 47 
13 51 
13 52 
13 53 
13 55 
13 56 
14 15 
14 16 
14 17 
14 19 
14 22 
14 27 
14 28 
14 34 
14 35 
14 38 
14 43 
14 46 
14 50 
14 52 
14 53 
14 54 
14 57 
15 16 
15 17 
15 20 
15 23 
15 28 
15 31 
15 33 
15 37 
15 40 
15 41 
15 44 
15 48 
15 50 
15 51 
15 54 
15 56 
16 17 
16 24 
16 29 
16 30 
16 34 
16 36 
16 40 
16 41 
16 44 
16 45 
16 47 
16 49 
16 52 
16 53 
16 56 
17 21 
17 22 
17 30 
17 31 
17 36 
17 37 
17 39 
17 45 
17 46 
17 48 
17 49 
17 54 
17 55 
17 57 
18 19 
18 20 
18 21 
18 22 
18 23 
18 24 
18 25 
18 32 
18 33 
18 34 
18 35 
18 36 
18 37 
18 38 
18 42 
18 47 
18 48 
18 49 
18 50 
19 20 
19 21 
19 22 
19 23 
19 24 
19 26 
19 28 
19 32 
19 35 
19 38 
19 39 
19 40 
19 41 
19 46 
19 50 
19 52 
19 57 
20 21 
20 22 
20 23 
20 24 
20 25 
20 31 
20 37 
20 41 
20 42 
20 43 
20 44 
20 45 
20 46 
20 50 
20 51 
20 56 
21 22 
21 23 
21 24 
21 27 
21 31 
21 33 
21 36 
21 39 
21 46 
21 47 
21 49 
21 51 
21 52 
21 54 
21 55 
22 23 
22 24 
22 27 
22 30 
22 34 
22 37 
22 38 
22 39 
22 43 
22 45 
22 48 
22 53 
22 54 
22 57 
23 24 
23 26 
23 28 
23 33 
23 35 
23 40 
23 42 
23 44 
23 48 
23 53 
23 54 
23 55 
23 56 
24 29 
24 30 
24 32 
24 36 
24 41 
24 43 
24 44 
24 47 
24 51 
24 53 
24 55 
24 57 
25 26 
25 27 
25 28 
25 29 
25 30 
25 31 
25 32 
25 33 
25 34 
25 35 
25 36 
25 37 
25 42 
25 43 
25 44 
25 45 
25 46 
26 27 
26 28 
26 29 
26 30 
26 31 
26 32 
26 35 
26 38 
26 39 
26 40 
26 41 
26 42 
26 53 
26 55 
26 56 
27 28 
27 29 
27 30 
27 31 
27 33 
27 34 
27 38 
27 39 
27 43 
27 47 
27 51 
27 52 
27 53 
27 54 
28 29 
28 30 
28 31 
28 33 
28 35 
28 40 
28 44 
28 46 
28 48 
28 50 
28 52 
28 54 
28 57 
29 30 
29 31 
29 32 
29 34 
29 40 
29 43 
29 45 
29 49 
29 51 
29 52 
29 55 
29 56 
29 57 
30 31 
30 36 
30 37 
30 39 
30 41 
30 44 
30 45 
30 47 
30 48 
30 53 
30 57 
31 36 
31 37 
31 41 
31 46 
31 49 
31 50 
31 51 
31 54 
31 55 
31 56 
32 33 
32 34 
32 35 
32 36 
32 37 
32 38 
32 39 
32 40 
32 41 
32 43 
32 51 
32 55 
32 57 
33 34 
33 35 
33 36 
33 37 
33 39 
33 40 
33 44 
33 47 
33 48 
33 51 
33 52 
33 54 
34 35 
34 36 
34 37 
34 38 
34 40 
34 43 
34 45 
34 49 
34 52 
34 53 
34 54 
34 56 
35 36 
35 37 
35 42 
35 46 
35 50 
35 52 
35 53 
35 55 
35 56 
35 57 
36 37 
36 41 
36 44 
36 46 
36 47 
36 49 
36 53 
36 54 
36 55 
37 39 
37 41 
37 45 
37 48 
37 50 
37 51 
37 56 
37 57 
38 39 
38 40 
38 41 
38 42 
38 43 
38 47 
38 48 
38 49 
38 50 
38 53 
38 54 
39 40 
39 41 
39 45 
39 47 
39 48 
39 51 
39 52 
39 57 
40 41 
40 44 
40 45 
40 48 
40 49 
40 52 
40 54 
40 56 
41 44 
41 47 
41 50 
41 51 
41 53 
41 56 
42 43 
42 44 
42 45 
42 46 
42 47 
42 48 
42 49 
42 50 
42 53 
42 55 
42 56 
43 44 
43 45 
43 46 
43 51 
43 53 
43 54 
43 55 
43 57 
44 45 
44 46 
44 47 
44 48 
44 53 
44 54 
45 46 
45 48 
45 49 
45 52 
45 56 
45 57 
46 49 
46 50 
46 52 
46 54 
46 55 
46 57 
47 48 
47 49 
47 50 
47 51 
47 52 
47 53 
48 49 
48 50 
48 54 
48 57 
49 50 
49 52 
49 54 
49 55 
49 56 
50 51 
50 52 
50 56 
50 57 
51 52 
51 55 
51 56 
51 57 
52 56 
52 57 
53 54 
53 55 
53 56 
54 55 
55 56 
55 57 
